
Gurobi 9.0.1 (linux64) logging started Thu Apr 30 05:57:44 2020

Gurobi Optimizer version 9.0.1 build v9.0.1rc0 (linux64)
Optimize a model with 872 rows, 990 columns and 6936 nonzeros
Model fingerprint: 0x3a25b1cb
Variable types: 0 continuous, 990 integer (980 binary)
Coefficient statistics:
  Matrix range     [1e+00, 5e+00]
  Objective range  [5e+00, 1e+02]
  Bounds range     [1e+00, 1e+00]
  RHS range        [1e+00, 1e+00]

User MIP start produced solution with objective 601 (0.00s)
Loaded user MIP start with objective 601

Presolve removed 208 rows and 360 columns
Presolve time: 0.06s
Presolved: 664 rows, 630 columns, 4902 nonzeros
Variable types: 0 continuous, 630 integer (622 binary)

Root relaxation: objective 4.462221e+02, 563 iterations, 0.03 seconds

    Nodes    |    Current Node    |     Objective Bounds      |     Work
 Expl Unexpl |  Obj  Depth IntInf | Incumbent    BestBd   Gap | It/Node Time

     0     0  446.22209    0  261  601.00000  446.22209  25.8%     -    0s
     0     0  472.30903    0  266  601.00000  472.30903  21.4%     -    0s
     0     0  472.49592    0  263  601.00000  472.49592  21.4%     -    0s
     0     0  472.51898    0  270  601.00000  472.51898  21.4%     -    0s
     0     0  472.52415    0  268  601.00000  472.52415  21.4%     -    0s
     0     0  482.26691    0  276  601.00000  482.26691  19.8%     -    0s
     0     0  482.70906    0  287  601.00000  482.70906  19.7%     -    0s
     0     0  482.87346    0  287  601.00000  482.87346  19.7%     -    0s
     0     0  482.95330    0  284  601.00000  482.95330  19.6%     -    0s
     0     0  482.98080    0  290  601.00000  482.98080  19.6%     -    0s
     0     0  482.98255    0  288  601.00000  482.98255  19.6%     -    0s
     0     0  491.23378    0  282  601.00000  491.23378  18.3%     -    0s
     0     0  492.45329    0  291  601.00000  492.45329  18.1%     -    0s
     0     0  492.49378    0  294  601.00000  492.49378  18.1%     -    0s
     0     0  492.49388    0  293  601.00000  492.49388  18.1%     -    0s
     0     0  496.59006    0  288  601.00000  496.59006  17.4%     -    0s
     0     0  497.15584    0  289  601.00000  497.15584  17.3%     -    0s
     0     0  497.73687    0  295  601.00000  497.73687  17.2%     -    1s
     0     0  497.74895    0  299  601.00000  497.74895  17.2%     -    1s
     0     0  500.22678    0  300  601.00000  500.22678  16.8%     -    1s
     0     0  500.58396    0  298  601.00000  500.58396  16.7%     -    1s
     0     0  500.58795    0  296  601.00000  500.58795  16.7%     -    1s
     0     0  501.15398    0  305  601.00000  501.15398  16.6%     -    1s
     0     0  501.24322    0  306  601.00000  501.24322  16.6%     -    1s
     0     0  501.24794    0  308  601.00000  501.24794  16.6%     -    1s
     0     0  501.59610    0  301  601.00000  501.59610  16.5%     -    1s
     0     0  501.61021    0  306  601.00000  501.61021  16.5%     -    1s
     0     0  503.87643    0  309  601.00000  503.87643  16.2%     -    1s
     0     0  504.01936    0  312  601.00000  504.01936  16.1%     -    1s
     0     0  504.05759    0  314  601.00000  504.05759  16.1%     -    1s
     0     0  504.47567    0  318  601.00000  504.47567  16.1%     -    1s
     0     0  504.56073    0  317  601.00000  504.56073  16.0%     -    1s
     0     0  504.56562    0  321  601.00000  504.56562  16.0%     -    1s
     0     0  504.75017    0  318  601.00000  504.75017  16.0%     -    1s
     0     0  504.75017    0  318  601.00000  504.75017  16.0%     -    1s
     0     2  504.80494    0  318  601.00000  504.80494  16.0%     -    1s
H   13    13                     563.0000000  516.41665  8.27%   234    2s
H  193    49                     559.0000000  530.95796  5.02%   116    4s
   303    92  557.79770   28  123  559.00000  537.57884  3.83%  95.1    5s
H  357    88                     555.0000000  540.20897  2.67%  89.2    5s
*  719   115              23     554.0000000  544.23407  1.76%  67.6    7s
*  754   108              27     553.0000000  544.71756  1.50%  65.9    7s
*  816    64              18     550.0000000  545.56320  0.81%  63.4    7s

Cutting planes:
  Gomory: 1
  MIR: 14
  GUB cover: 1
  Inf proof: 7
  Zero half: 34
  RLT: 225

Explored 913 nodes (58402 simplex iterations) in 8.26 seconds
Thread count was 1 (of 40 available processors)

Solution count 7: 550 553 554 ... 601

Optimal solution found (tolerance 1.00e-04)
Best objective 5.500000000000e+02, best bound 5.500000000000e+02, gap 0.0000%

User-callback calls 3909, time in user-callback 0.00 sec
